(set-option :smt.auto-config false)
(set-option :smt.mbqi false)
(set-option :sat.random_seed 488)
(set-option :smt.random_seed 599)
(set-option :nlsat.seed 611)
(set-option :memory_max_size 6000)
(declare-fun foo (Int) Bool)
(declare-fun bar (Int) Bool)
(declare-sort RegExStr 0)
(declare-sort RMode 0)
(assert (! (forall ((xpy0 Int)) (! (or (foo xpy0) (<= xpy0 0) (<= 100 xpy0)) :pattern ((bar xpy0)) )) :named A0))
(assert (! (not (foo 10)) :named A1))
(check-sat)
(get-info :reason-unknown)